p cnf 386 460
-12 8 -1 21 22 0
-12 8 -1 21 -22 0
-12 8 -1 -21 23 0
-12 8 -1 -21 -23 0
1 4 9 24 25 0
1 4 9 24 -25 0
1 4 9 -24 26 0
1 4 9 -24 -26 0
2 -6 19 27 28 0
2 -6 19 27 -28 0
2 -6 19 -27 29 0
2 -6 19 -27 -29 0
3 -6 -1 30 31 0
3 -6 -1 30 -31 0
3 -6 -1 -30 32 0
3 -6 -1 -30 -32 0
1 -17 -18 33 34 0
1 -17 -18 33 -34 0
1 -17 -18 -33 35 0
1 -17 -18 -33 -35 0
8 -4 -6 36 37 0
8 -4 -6 36 -37 0
8 -4 -6 -36 38 0
8 -4 -6 -36 -38 0
-3 -16 -15 39 40 0
-3 -16 -15 39 -40 0
-3 -16 -15 -39 41 0
-3 -16 -15 -39 -41 0
-15 19 -3 42 43 0
-15 19 -3 42 -43 0
-15 19 -3 -42 44 0
-15 19 -3 -42 -44 0
-19 4 5 45 46 0
-19 4 5 45 -46 0
-19 4 5 -45 47 0
-19 4 5 -45 -47 0
11 -10 -1 48 49 0
11 -10 -1 48 -49 0
11 -10 -1 -48 50 0
11 -10 -1 -48 -50 0
-7 -17 13 51 52 0
-7 -17 13 51 -52 0
-7 -17 13 -51 53 0
-7 -17 13 -51 -53 0
18 7 -19 54 55 0
18 7 -19 54 -55 0
18 7 -19 -54 56 0
18 7 -19 -54 -56 0
-3 4 -20 57 58 0
-3 4 -20 57 -58 0
-3 4 -20 -57 59 0
-3 4 -20 -57 -59 0
-15 -8 3 60 61 0
-15 -8 3 60 -61 0
-15 -8 3 -60 62 0
-15 -8 3 -60 -62 0
-5 6 -7 63 64 0
-5 6 -7 63 -64 0
-5 6 -7 -63 65 0
-5 6 -7 -63 -65 0
-20 11 16 66 67 0
-20 11 16 66 -67 0
-20 11 16 -66 68 0
-20 11 16 -66 -68 0
-16 -2 -14 69 70 0
-16 -2 -14 69 -70 0
-16 -2 -14 -69 71 0
-16 -2 -14 -69 -71 0
-11 14 1 72 73 0
-11 14 1 72 -73 0
-11 14 1 -72 74 0
-11 14 1 -72 -74 0
-9 -4 12 75 76 0
-9 -4 12 75 -76 0
-9 -4 12 -75 77 0
-9 -4 12 -75 -77 0
18 -2 -14 78 79 0
18 -2 -14 78 -79 0
18 -2 -14 -78 80 0
18 -2 -14 -78 -80 0
-4 13 -8 81 82 0
-4 13 -8 81 -82 0
-4 13 -8 -81 83 0
-4 13 -8 -81 -83 0
7 -20 14 84 85 0
7 -20 14 84 -85 0
7 -20 14 -84 86 0
7 -20 14 -84 -86 0
-18 -6 17 87 88 0
-18 -6 17 87 -88 0
-18 -6 17 -87 89 0
-18 -6 17 -87 -89 0
-4 9 16 90 91 0
-4 9 16 90 -91 0
-4 9 16 -90 92 0
-4 9 16 -90 -92 0
-13 -7 -17 93 94 0
-13 -7 -17 93 -94 0
-13 -7 -17 -93 95 0
-13 -7 -17 -93 -95 0
-1 -13 20 96 97 0
-1 -13 20 96 -97 0
-1 -13 20 -96 98 0
-1 -13 20 -96 -98 0
-17 6 7 99 100 0
-17 6 7 99 -100 0
-17 6 7 -99 101 0
-17 6 7 -99 -101 0
-17 -6 3 102 103 0
-17 -6 3 102 -103 0
-17 -6 3 -102 104 0
-17 -6 3 -102 -104 0
15 19 2 105 106 0
15 19 2 105 -106 0
15 19 2 -105 107 0
15 19 2 -105 -107 0
1 -10 -18 108 109 0
1 -10 -18 108 -109 0
1 -10 -18 -108 110 0
1 -10 -18 -108 -110 0
-3 15 18 111 112 0
-3 15 18 111 -112 0
-3 15 18 -111 113 0
-3 15 18 -111 -113 0
17 12 -11 114 115 0
17 12 -11 114 -115 0
17 12 -11 -114 116 0
17 12 -11 -114 -116 0
-4 -6 18 117 118 0
-4 -6 18 117 -118 0
-4 -6 18 -117 119 0
-4 -6 18 -117 -119 0
-10 -16 5 120 121 0
-10 -16 5 120 -121 0
-10 -16 5 -120 122 0
-10 -16 5 -120 -122 0
-20 -9 10 123 124 0
-20 -9 10 123 -124 0
-20 -9 10 -123 125 0
-20 -9 10 -123 -125 0
-15 -1 18 126 127 0
-15 -1 18 126 -127 0
-15 -1 18 -126 128 0
-15 -1 18 -126 -128 0
17 -16 7 129 130 0
17 -16 7 129 -130 0
17 -16 7 -129 131 0
17 -16 7 -129 -131 0
7 -2 19 132 133 0
7 -2 19 132 -133 0
7 -2 19 -132 134 0
7 -2 19 -132 -134 0
10 -13 -7 135 136 0
10 -13 -7 135 -136 0
10 -13 -7 -135 137 0
10 -13 -7 -135 -137 0
7 -1 6 138 139 0
7 -1 6 138 -139 0
7 -1 6 -138 140 0
7 -1 6 -138 -140 0
18 -19 -8 141 142 0
18 -19 -8 141 -142 0
18 -19 -8 -141 143 0
18 -19 -8 -141 -143 0
-6 -15 7 144 145 0
-6 -15 7 144 -145 0
-6 -15 7 -144 146 0
-6 -15 7 -144 -146 0
14 4 -13 147 148 0
14 4 -13 147 -148 0
14 4 -13 -147 149 0
14 4 -13 -147 -149 0
15 -2 3 150 151 0
15 -2 3 150 -151 0
15 -2 3 -150 152 0
15 -2 3 -150 -152 0
7 -3 -13 153 154 0
7 -3 -13 153 -154 0
7 -3 -13 -153 155 0
7 -3 -13 -153 -155 0
4 -20 1 156 157 0
4 -20 1 156 -157 0
4 -20 1 -156 158 0
4 -20 1 -156 -158 0
-18 -19 -15 159 160 0
-18 -19 -15 159 -160 0
-18 -19 -15 -159 161 0
-18 -19 -15 -159 -161 0
-4 -5 -19 162 163 0
-4 -5 -19 162 -163 0
-4 -5 -19 -162 164 0
-4 -5 -19 -162 -164 0
1 -5 -17 165 166 0
1 -5 -17 165 -166 0
1 -5 -17 -165 167 0
1 -5 -17 -165 -167 0
-3 -16 -12 168 169 0
-3 -16 -12 168 -169 0
-3 -16 -12 -168 170 0
-3 -16 -12 -168 -170 0
-14 -2 -1 171 172 0
-14 -2 -1 171 -172 0
-14 -2 -1 -171 173 0
-14 -2 -1 -171 -173 0
-19 -14 18 174 175 0
-19 -14 18 174 -175 0
-19 -14 18 -174 176 0
-19 -14 18 -174 -176 0
-14 -16 6 177 178 0
-14 -16 6 177 -178 0
-14 -16 6 -177 179 0
-14 -16 6 -177 -179 0
12 14 10 180 181 0
12 14 10 180 -181 0
12 14 10 -180 182 0
12 14 10 -180 -182 0
-7 -6 -17 183 184 0
-7 -6 -17 183 -184 0
-7 -6 -17 -183 185 0
-7 -6 -17 -183 -185 0
8 -14 -18 186 187 0
8 -14 -18 186 -187 0
8 -14 -18 -186 188 0
8 -14 -18 -186 -188 0
7 12 11 189 190 0
7 12 11 189 -190 0
7 12 11 -189 191 0
7 12 11 -189 -191 0
4 16 -18 192 193 0
4 16 -18 192 -193 0
4 16 -18 -192 194 0
4 16 -18 -192 -194 0
14 19 4 195 196 0
14 19 4 195 -196 0
14 19 4 -195 197 0
14 19 4 -195 -197 0
-3 12 -13 198 199 0
-3 12 -13 198 -199 0
-3 12 -13 -198 200 0
-3 12 -13 -198 -200 0
-14 17 -5 201 202 0
-14 17 -5 201 -202 0
-14 17 -5 -201 203 0
-14 17 -5 -201 -203 0
-8 -11 -10 204 205 0
-8 -11 -10 204 -205 0
-8 -11 -10 -204 206 0
-8 -11 -10 -204 -206 0
-20 18 -6 207 208 0
-20 18 -6 207 -208 0
-20 18 -6 -207 209 0
-20 18 -6 -207 -209 0
-8 20 -12 210 211 0
-8 20 -12 210 -211 0
-8 20 -12 -210 212 0
-8 20 -12 -210 -212 0
18 5 -9 213 214 0
18 5 -9 213 -214 0
18 5 -9 -213 215 0
18 5 -9 -213 -215 0
2 17 -15 216 217 0
2 17 -15 216 -217 0
2 17 -15 -216 218 0
2 17 -15 -216 -218 0
-4 -17 10 219 220 0
-4 -17 10 219 -220 0
-4 -17 10 -219 221 0
-4 -17 10 -219 -221 0
4 -14 1 222 223 0
4 -14 1 222 -223 0
4 -14 1 -222 224 0
4 -14 1 -222 -224 0
-3 19 8 225 226 0
-3 19 8 225 -226 0
-3 19 8 -225 227 0
-3 19 8 -225 -227 0
12 -7 -14 228 229 0
12 -7 -14 228 -229 0
12 -7 -14 -228 230 0
12 -7 -14 -228 -230 0
-18 17 14 231 232 0
-18 17 14 231 -232 0
-18 17 14 -231 233 0
-18 17 14 -231 -233 0
-11 -7 -19 234 235 0
-11 -7 -19 234 -235 0
-11 -7 -19 -234 236 0
-11 -7 -19 -234 -236 0
3 -4 -7 237 238 0
3 -4 -7 237 -238 0
3 -4 -7 -237 239 0
3 -4 -7 -237 -239 0
12 16 20 240 241 0
12 16 20 240 -241 0
12 16 20 -240 242 0
12 16 20 -240 -242 0
1 12 -3 243 244 0
1 12 -3 243 -244 0
1 12 -3 -243 245 0
1 12 -3 -243 -245 0
-19 4 -13 246 247 0
-19 4 -13 246 -247 0
-19 4 -13 -246 248 0
-19 4 -13 -246 -248 0
-2 14 1 249 250 0
-2 14 1 249 -250 0
-2 14 1 -249 251 0
-2 14 1 -249 -251 0
17 12 -8 252 253 0
17 12 -8 252 -253 0
17 12 -8 -252 254 0
17 12 -8 -252 -254 0
5 19 -15 255 256 0
5 19 -15 255 -256 0
5 19 -15 -255 257 0
5 19 -15 -255 -257 0
1 10 -17 258 259 0
1 10 -17 258 -259 0
1 10 -17 -258 260 0
1 10 -17 -258 -260 0
-11 -2 6 261 262 0
-11 -2 6 261 -262 0
-11 -2 6 -261 263 0
-11 -2 6 -261 -263 0
11 -10 -9 264 265 0
11 -10 -9 264 -265 0
11 -10 -9 -264 266 0
11 -10 -9 -264 -266 0
-1 -7 -20 267 268 0
-1 -7 -20 267 -268 0
-1 -7 -20 -267 269 0
-1 -7 -20 -267 -269 0
16 20 18 270 271 0
16 20 18 270 -271 0
16 20 18 -270 272 0
16 20 18 -270 -272 0
5 -9 15 273 274 0
5 -9 15 273 -274 0
5 -9 15 -273 275 0
5 -9 15 -273 -275 0
17 7 5 276 277 0
17 7 5 276 -277 0
17 7 5 -276 278 0
17 7 5 -276 -278 0
-10 -15 11 279 280 0
-10 -15 11 279 -280 0
-10 -15 11 -279 281 0
-10 -15 11 -279 -281 0
10 20 12 282 283 0
10 20 12 282 -283 0
10 20 12 -282 284 0
10 20 12 -282 -284 0
9 -5 -7 285 286 0
9 -5 -7 285 -286 0
9 -5 -7 -285 287 0
9 -5 -7 -285 -287 0
12 19 -4 288 289 0
12 19 -4 288 -289 0
12 19 -4 -288 290 0
12 19 -4 -288 -290 0
-8 -17 -7 291 292 0
-8 -17 -7 291 -292 0
-8 -17 -7 -291 293 0
-8 -17 -7 -291 -293 0
294 295 297 301 309 0
294 295 297 301 -309 0
294 295 297 -301 310 0
294 295 297 -301 -310 0
294 295 -297 302 311 0
294 295 -297 302 -311 0
294 295 -297 -302 312 0
294 295 -297 -302 -312 0
294 -295 298 303 313 0
294 -295 298 303 -313 0
294 -295 298 -303 314 0
294 -295 298 -303 -314 0
294 -295 -298 304 315 0
294 -295 -298 304 -315 0
294 -295 -298 -304 316 0
294 -295 -298 -304 -316 0
-294 296 299 305 317 0
-294 296 299 305 -317 0
-294 296 299 -305 318 0
-294 296 299 -305 -318 0
-294 296 -299 306 319 0
-294 296 -299 306 -319 0
-294 296 -299 -306 320 0
-294 296 -299 -306 -320 0
-294 -296 300 307 321 0
-294 -296 300 307 -321 0
-294 -296 300 -307 322 0
-294 -296 300 -307 -322 0
-294 -296 -300 308 323 0
-294 -296 -300 308 -323 0
-294 -296 -300 -308 324 0
-294 -296 -300 -308 -324 0
325 326 328 332 340 0
325 326 328 332 -340 0
325 326 328 -332 341 0
325 326 328 -332 -341 0
325 326 -328 333 342 0
325 326 -328 333 -342 0
325 326 -328 -333 343 0
325 326 -328 -333 -343 0
325 -326 329 334 344 0
325 -326 329 334 -344 0
325 -326 329 -334 345 0
325 -326 329 -334 -345 0
325 -326 -329 335 346 0
325 -326 -329 335 -346 0
325 -326 -329 -335 347 0
325 -326 -329 -335 -347 0
-325 327 330 336 348 0
-325 327 330 336 -348 0
-325 327 330 -336 349 0
-325 327 330 -336 -349 0
-325 327 -330 337 350 0
-325 327 -330 337 -350 0
-325 327 -330 -337 351 0
-325 327 -330 -337 -351 0
-325 -327 331 338 352 0
-325 -327 331 338 -352 0
-325 -327 331 -338 353 0
-325 -327 331 -338 -353 0
-325 -327 -331 339 354 0
-325 -327 -331 339 -354 0
-325 -327 -331 -339 355 0
-325 -327 -331 -339 -355 0
356 357 359 363 371 0
356 357 359 363 -371 0
356 357 359 -363 372 0
356 357 359 -363 -372 0
356 357 -359 364 373 0
356 357 -359 364 -373 0
356 357 -359 -364 374 0
356 357 -359 -364 -374 0
356 -357 360 365 375 0
356 -357 360 365 -375 0
356 -357 360 -365 376 0
356 -357 360 -365 -376 0
356 -357 -360 366 377 0
356 -357 -360 366 -377 0
356 -357 -360 -366 378 0
356 -357 -360 -366 -378 0
-356 358 361 367 379 0
-356 358 361 367 -379 0
-356 358 361 -367 380 0
-356 358 361 -367 -380 0
-356 358 -361 368 381 0
-356 358 -361 368 -381 0
-356 358 -361 -368 382 0
-356 358 -361 -368 -382 0
-356 -358 362 369 383 0
-356 -358 362 369 -383 0
-356 -358 362 -369 384 0
-356 -358 362 -369 -384 0
-356 -358 -362 370 385 0
-356 -358 -362 370 -385 0
-356 -358 -362 -370 386 0
-356 -358 -362 -370 -386 0

